% seed = 6548590

mint = 50;
% maxt = 110;

nActs = 22;
dur = [0,9,3,1,10,4,7,10,2,9,1,6,1,2,7,7,9,6,3,6,7,0];

nSkills = 4;
sreq = [| 0,0,0,0,
	| 0,2,2,1,
	| 0,2,3,1,
	| 0,2,2,1,
	| 2,2,0,2,
	| 2,2,0,1,
	| 3,0,2,2,
	| 3,2,0,2,
	| 0,1,2,2,
	| 3,2,3,0,
	| 3,0,3,2,
	| 0,2,2,1,
	| 1,1,2,0,
	| 2,0,3,2,
	| 1,2,1,0,
	| 2,0,3,2,
	| 2,1,0,2,
	| 3,2,2,0,
	| 1,2,0,2,
	| 0,2,1,3,
	| 3,2,3,0,
	| 0,0,0,0, |];

nResources = 10;
mastery = [| false,false,false,true,
	| false,false,true,false,
	| false,true,true,false,
	| false,false,true,true,
	| true,false,true,false,
	| true,false,false,true,
	| false,true,false,false,
	| true,false,true,true,
	| false,false,true,false,
	| false,false,false,true, |];

nPrecs = 31;
pred = [1,1,1,2,3,3,4,5,5,6,7,7,8,8,9,10,10,10,11,12,12,13,13,14,15,16,17,18,19,20,21];
succ = [2,3,4,7,20,6,5,21,8,12,20,16,9,10,14,11,19,15,20,18,13,19,16,15,18,17,21,21,22,22,22];

nUnrels = 105;
unpred = [2,2,2,2,2,2,2,2,2,2,2,2,2,2,3,3,3,3,3,3,3,3,3,4,4,4,4,4,4,5,5,5,5,5,5,6,6,6,6,6,6,6,6,7,7,7,7,7,7,7,7,7,7,8,8,8,8,9,9,9,9,9,9,9,9,10,10,10,10,10,11,11,11,11,11,11,11,11,11,12,12,12,13,13,13,13,14,14,14,14,15,15,15,15,16,16,16,17,17,17,18,18,19,19,20];
unsucc = [3,4,5,6,8,9,10,11,12,13,14,15,18,19,4,5,7,8,9,10,11,14,15,6,7,12,13,16,17,6,7,12,13,16,17,7,8,9,10,11,14,15,20,8,9,10,11,12,13,14,15,18,19,12,13,16,17,10,11,12,13,16,17,19,20,12,13,14,16,17,12,13,14,15,16,17,18,19,21,14,15,20,14,15,18,20,16,17,19,20,16,17,19,20,18,19,20,18,19,20,19,20,20,21,21];

USEFUL_RES = [{},
	{1,2,3,4,5,6,7,8,9,10},
	{1,2,3,4,5,6,7,8,9,10},
	{1,2,3,4,5,6,7,8,9,10},
	{1,3,4,5,6,7,8,10},
	{1,3,4,5,6,7,8,10},
	{1,2,3,4,5,6,8,9,10},
	{1,3,4,5,6,7,8,10},
	{1,2,3,4,5,6,7,8,9,10},
	{2,3,4,5,6,7,8,9},
	{1,2,3,4,5,6,8,9,10},
	{1,2,3,4,5,6,7,8,9,10},
	{2,3,4,5,6,7,8,9},
	{1,2,3,4,5,6,8,9,10},
	{2,3,4,5,6,7,8,9},
	{1,2,3,4,5,6,8,9,10},
	{1,3,4,5,6,7,8,10},
	{2,3,4,5,6,7,8,9},
	{1,3,4,5,6,7,8,10},
	{1,2,3,4,5,6,7,8,9,10},
	{2,3,4,5,6,7,8,9},
	{}];

POTENTIAL_ACT = [{2,3,4,5,6,7,8,9,11,12,14,16,17,19,20},
	{2,3,4,7,9,10,11,12,13,14,15,16,18,20,21},
	{2,3,4,5,6,7,8,9,10,11,12,13,14,15,16,17,18,19,20,21},
	{2,3,4,5,6,7,8,9,10,11,12,13,14,15,16,17,18,19,20,21},
	{2,3,4,5,6,7,8,9,10,11,12,13,14,15,16,17,18,19,20,21},
	{2,3,4,5,6,7,8,9,10,11,12,13,14,15,16,17,18,19,20,21},
	{2,3,4,5,6,8,9,10,12,13,15,17,18,19,20,21},
	{2,3,4,5,6,7,8,9,10,11,12,13,14,15,16,17,18,19,20,21},
	{2,3,4,7,9,10,11,12,13,14,15,16,18,20,21},
	{2,3,4,5,6,7,8,9,11,12,14,16,17,19,20}];
